Route #1: 5 15 56 28 13
Route #2: 58 12 45 52 22 54 55 21 25 63
Route #3: 16 43 27 10 7 38 17
Route #4: 20 19 1 49 35 11
Route #5: 46 50 14 4 39 53
Route #6: 44 42 36 6 34 40 64 60
Route #7: 3 57 30 61 62 9
Route #8: 48 66 51 32 37 65 2 26
Route #9: 41 29 24 59 8 23 18
Route #10: 31 33 47
Cost 1120